
c--------------------------------------------------------------
c	Ferhat Erata
c	CPSC 454/554
c	Tue Nov 26 2019	21:13:20
c--------------------------------------------------------------
s UNSATISFIABLE
c--------------------------------------------------------------
c statistics of ../../bench2/sat/160-2000.cnf:
c [ mem_used: 170685, conflicts: 0, max_lemmas: 2000 ]
c--------------------------------------------------------------
c	Normal termination.
